19 103 82 61 40 20 198 176 154 132 110 87 64 41 17 194 170 146 122 97 72 47 23 196 169 143 117 90 62 34 7 180 151 123 93 63 32 3 173 141 111 78 46 13 182 148 114 79 44 9 174 128 99 65 27 188 150 109 70 30 189 147 105 59 18 175 131 85 39 192 144 96 50 199 149 95 45 190 136 81 26 167 115 55 195 134 73 10 152 83 15 155 84 184 101 153 112 91 178 121 166 36 162 69 107 164 186 33 126 75 8 11 133 92 2 52 53 14 66 185 24 157 94 89 130 163 71 80 145 191 21 100 98 140 119 129 197 60 138 160 118 88 4 127 42 104 31 28 142 43 137 12 29 102 48 74 56 106 16 37 67 165 68 120 159 177 172 57 25 179 193 158 187 5 171 38 54 183 161 108 125 124 113 116 168 51 76 135 35 22 139 0 156 1 86 58 77 6 49 181 

